NAME : LPS-n31-m258
COMMENT : (Lartu-Peter-Santi Plot, instance 11458 out of 39200. 31 customers.)
TYPE : CVRP
DIMENSION : 31
EDGE_WEIGHT_TYPE : EUC_2D
CAPACITY : 75
NODE_COORD_SECTION
 1 54 37
 2 40 55
 3 44 57
 4 55 24
 5 64 66
 6 26 34
 7 4 79
 8 31 46
 9 24 22
 10 93 67
 11 62 92
 12 58 100
 13 92 56
 14 42 17
 15 13 22
 16 66 6
 17 18 95
 18 20 98
 19 92 99
 20 30 11
 21 100 99
 22 63 46
 23 77 21
 24 26 54
 25 35 12
 26 43 82
 27 28 19
 28 6 65
 29 34 15
 30 10 34
 31 45 92
DEMAND_SECTION
1 0
2 13
3 62
4 7
5 40
6 36
7 45
8 64
9 73
10 42
11 72
12 60
13 52
14 68
15 19
16 65
17 39
18 45
19 32
20 51
21 63
22 50
23 23
24 70
25 47
26 32
27 6
28 39
29 41
30 6
31 4
DEPOT_SECTION
 1
 -1
EOF
